(set-logic QF_S)
(declare-fun _var_0xINPUT_103165_() String)
(declare-fun __woorpje_diseq_pref0_() String)
(declare-fun __woorpje_diseq_suf_l0_() String)
(declare-fun __woorpje_diseq_suf_r0_() String)
(assert (=(str.++ _var_0xINPUT_103165_  "")(str.++ __woorpje_diseq_pref0_  "y" __woorpje_diseq_suf_l0_  "")) )
(assert (=(str.++  "lsZ1Byx8bC" "")(str.++ __woorpje_diseq_pref0_  "C" __woorpje_diseq_suf_r0_  "")) )
(check-sat)
